set I := 0 1 2 3 4 5 6 7 8 9 10 11 12 13 14 15 16 17 18 19;

param cap := 150;

param: size:=
    0 100
    1 97
    2 92
    3 88
    4 83
    5 80
    6 76
    7 71
    8 67
    9 64
    10 59
    11 55
    12 49
    13 46
    14 42
    15 39
    16 35
    17 32
    18 28
    19 24;
